
Gurobi 9.5.1 (linux64, Java) logging started mer 8 feb 2023, 22:09:31

Set parameter Username
Academic license - for non-commercial use only - expires 2023-12-01

Gurobi 9.5.1 (linux64, Java) logging started mer 8 feb 2023, 22:14:02

Set parameter Username
Academic license - for non-commercial use only - expires 2023-12-01

Gurobi 9.5.1 (linux64, Java) logging started mer 8 feb 2023, 22:15:35

Set parameter Username
Academic license - for non-commercial use only - expires 2023-12-01
